20 21
1 18
16 0
2 7
14 30
26 5
12 1
12 20
13 25
7 27
6 13
12 24
7 1
14 4
0 28
18 28
9 2
26 8
27 30
17 11
16 9
29 19
8 7
21 19
16 16
8 10
10 10
5 9
1 13
9 5
24 19
23 21
22 30
8 24
6 28
28 24
8 14
11 23
10 16
25 3
21 16
25 12
5 7
9 27
0 1
12 21
19 27
3 6
19 11
8 25
18 29
7 0
3 1
21 20
30 2
7 25
13 7
4 10
0 9
30 13
30 18
10 2
18 30
0 6
6 0
12 8
9 19
9 13
5 25
26 24
19 6
10 0
27 10
3 19
23 22
17 9
14 26
23 23
26 18
26 27
29 21
17 2
27 18
11 9
0 0
2 19
19 15
5 10
25 11
10 14
